50
18189

35 905
596 962
235 379
767 535
462 718
178 225
7 276
100 925
477 969
543 731
951 281
879 908
656 365
325 9
681 175
500 847
746 849
270 502
584 287
937 7
89 786
117 900
106 10
451 148
948 899
590 616
533 717
730 559
851 553
965 877
183 187
525 712
90 206
491 377
995 916
751 395
595 833
361 666
322 191
468 806
895 896
716 299
317 660
421 499
920 612
208 374
22 981
695 192
285 539
441 689
